11274
1 0 1 0 1 0 1 0 1 1 1 0 0 0 1 0 0 0 0 1
19 19 8 6 9 19 0 2 6 9 19 2 6 14 10 19 0 2 6 9 2 0 2 14 10 0 2 2 4 8 19 8 6 6 9 19 19 6 8 9 10 2 2 14 10 4 19 0 4 9 19 19 14 6 9 19 19 0 0 9 19 6 6 6 10 4 19 0 4 2 19 6 8 4 10 4 0 2 4 2 4 2 2 14 10 4 2 2 14 10 0 2 2 14 10 19 19 2 6 9